# Solution for model GasLib-40
# Objective value = 6.1341295056680359e+01
loadshed[innode_1] 0
loadshed[innode_2] 0
loadshed[innode_3] 0
loadshed[innode_4] 0
loadshed[innode_5] 0
loadshed[innode_6] 0
loadshed[innode_7] 0
loadshed[innode_8] 0
loadshed[source_1] -7.6626547359452513e-02
loadshed[source_2] 2.0758977271915979e-01
loadshed[source_3] 2.5705111631209432e-01
loadshed[sink_1] 7.8433870747065781e-01
loadshed[sink_2] 0
loadshed[sink_3] 0
loadshed[sink_4] 0
loadshed[sink_5] 0
loadshed[sink_6] 0
loadshed[sink_7] 0
loadshed[sink_8] 0
loadshed[sink_9] 0
loadshed[sink_10] 0
loadshed[sink_11] 0
loadshed[sink_12] 1
loadshed[sink_13] 0
loadshed[sink_14] 0
loadshed[sink_15] 0
loadshed[sink_16] 0
loadshed[sink_17] 0
loadshed[sink_18] 0
loadshed[sink_19] 0
loadshed[sink_20] 0
loadshed[sink_21] 1
loadshed[sink_22] 0
loadshed[sink_23] 0
loadshed[sink_24] 9.6646659535820467e-01
loadshed[sink_25] 0
loadshed[sink_26] 0
loadshed[sink_27] 0
loadshed[sink_28] 0
loadshed[sink_29] 0
flow[source_1,sink_3] 1.7020418993498566e+02
flow[innode_1,sink_16] 1.6354166666666970e+01
flow[innode_6,sink_13] -2.9738287302437385e+00
flow[sink_13,sink_14] -1.9327995396910406e+01
flow[sink_14,sink_10] -3.5682162063577074e+01
flow[sink_25,sink_26] 0
flow[sink_26,sink_9] 8.5846204943319663e+01
flow[sink_9,sink_18] 6.9492038276652991e+01
flow[sink_26,sink_4] -1.0220037160998632e+02
flow[sink_4,sink_20] -1.0008614740183702e+02
flow[sink_18,sink_6] 5.3137871609986320e+01
flow[sink_25,innode_8] -1.3749585660164931e+02
flow[sink_6,sink_7] 1.6902577555079361e+01
flow[sink_6,sink_22] 1.9881127388240284e+01
flow[sink_7,sink_24] 0.548410888412695
flow[sink_22,sink_1] 3.5269607215736172e+00
flow[sink_24,sink_21] 0
flow[sink_21,sink_12] 0
flow[sink_7,sink_5] 0
flow[sink_5,sink_17] -1.6354166666667197e+01
flow[sink_17,sink_4] 1.8468390874815896e+01
flow[sink_17,sink_8] -5.1176724208149793e+01
flow[sink_3,sink_23] 16.3541666666697
flow[sink_8,sink_20] -6.7530890874816464e+01
flow[sink_25,sink_20] 1.8397120494332012e+02
flow[sink_25,sink_15] -5.9855686278095007e+01
flow[sink_15,sink_29] -7.6209852944761678e+01
flow[sink_29,sink_28] 1.6354166666667879e+01
flow[sink_29,sink_2] 1.6354166666684250e+01
flow[sink_2,sink_15] 0
flow[sink_29,innode_7] -1.2527235294478005e+02
flow[innode_4,sink_19] 4.5457395709778204e+01
flow[sink_19,innode_3] 4.1355037380001825e+01
flow[innode_4,innode_5] 7.1995599687132724e+01
flow[sink_27,innode_5] -7.1995599687132724e+01
flow[sink_27,sink_19] 5.5641433020466060e+01
flow[sink_10,sink_11] 3.2708333333333641e+01
flow[sink_10,innode_2] -4.3389624683575555e+01
flow[sink_10,innode_3] -4.1355037380001825e+01
flow[innode_6,sink_25] 2.9738287302437385e+00
flow[sink_11,innode_1] 1.6354166666666970e+01
flow[sink_19,innode_2] 4.3389624683575555e+01
flow[source_3,innode_4] 1.1745299539691092e+02
flow[source_2,innode_7] 1.2527235294478005e+02
flow[sink_3,innode_8] 1.3749585660164931e+02
pressure[innode_1] 7.6726632896542810e+01
pressure[innode_2] 7.9171655073692463e+01
pressure[innode_3] 7.9080079026364416e+01
pressure[innode_4] 81.01325
pressure[innode_5] 8.0963727630195464e+01
pressure[innode_6] 7.5139634726543420e+01
pressure[innode_7] 81.01325
pressure[innode_8] 8.0444322413404620e+01
pressure[source_1] 81.01325
pressure[source_2] 81.01325
pressure[source_3] 81.01325
pressure[sink_1] 1.01325
pressure[sink_2] 7.7248435814142312e+01
pressure[sink_3] 8.0444322413404620e+01
pressure[sink_4] 2.3938676837336534e+01
pressure[sink_5] 2.3426210633580769e+01
pressure[sink_6] 1.8731717046930287e+00
pressure[sink_7] 1.6411396045087896e+00
pressure[sink_8] 2.6575508597169133e+01
pressure[sink_9] 5.8065401556595226e+00
pressure[sink_10] 7.6878334204146356e+01
pressure[sink_11] 7.6726632896542810e+01
pressure[sink_12] 1.0132499999999995e+00
pressure[sink_13] 75.1560289473603
pressure[sink_14] 7.5190618041504237e+01
pressure[sink_15] 7.5429993129679815e+01
pressure[sink_16] 7.5704983061725130e+01
pressure[sink_17] 2.4644477838935519e+01
pressure[sink_18] 3.2921110889151750e+00
pressure[sink_19] 7.9171655073692463e+01
pressure[sink_20] 3.1281461985921787e+01
pressure[sink_21] 1.0132499999999995e+00
pressure[sink_22] 1.2426638281931073e+00
pressure[sink_23] 8.0279604401744834e+01
pressure[sink_24] 1.0132499999999995e+00
pressure[sink_25] 7.5139634726543420e+01
pressure[sink_26] 1.0944657084473123e+01
pressure[sink_27] 8.0366297186356178e+01
pressure[sink_28] 7.7367423038988790e+01
pressure[sink_29] 7.7662705312605965e+01
interdiction[source_1,sink_3] 0
interdiction[innode_1,sink_16] 0
interdiction[innode_6,sink_13] 0
interdiction[sink_13,sink_14] 0
interdiction[sink_14,sink_10] 0
interdiction[sink_25,sink_26] 1
interdiction[sink_26,sink_9] 0
interdiction[sink_9,sink_18] 0
interdiction[sink_26,sink_4] 0
interdiction[sink_4,sink_20] 0
interdiction[sink_18,sink_6] 0
interdiction[sink_25,innode_8] 0
interdiction[sink_6,sink_7] 0
interdiction[sink_6,sink_22] 0
interdiction[sink_7,sink_24] 0
interdiction[sink_22,sink_1] 0
interdiction[sink_24,sink_21] 0
interdiction[sink_21,sink_12] 0
interdiction[sink_7,sink_5] 1
interdiction[sink_5,sink_17] 0
interdiction[sink_17,sink_4] 0
interdiction[sink_17,sink_8] 0
interdiction[sink_3,sink_23] 0
interdiction[sink_8,sink_20] 0
interdiction[sink_25,sink_20] 0
interdiction[sink_25,sink_15] 0
interdiction[sink_15,sink_29] 0
interdiction[sink_29,sink_28] 0
interdiction[sink_29,sink_2] 0
interdiction[sink_2,sink_15] 1
interdiction[sink_29,innode_7] 0
interdiction[innode_4,sink_19] 0
interdiction[sink_19,innode_3] 0
interdiction[innode_4,innode_5] 0
interdiction[sink_27,innode_5] 0
interdiction[sink_27,sink_19] 0
interdiction[sink_10,sink_11] 0
interdiction[sink_10,innode_2] 0
interdiction[sink_10,innode_3] 0
interdiction[innode_6,sink_25] 0
interdiction[sink_11,innode_1] 0
interdiction[sink_19,innode_2] 0
interdiction[source_3,innode_4] 0
interdiction[source_2,innode_7] 0
interdiction[sink_3,innode_8] 0
WCcheckFlow[source_1,sink_3] 39
WCcheckFlow[innode_1,sink_16] 1
WCcheckFlow[innode_6,sink_13] 13
WCcheckFlow[sink_13,sink_14] 12
WCcheckFlow[sink_14,sink_10] 11
WCcheckFlow[sink_25,sink_26] 0
WCcheckFlow[sink_26,sink_9] 9
WCcheckFlow[sink_9,sink_18] 8
WCcheckFlow[sink_26,sink_4] -10
WCcheckFlow[sink_4,sink_20] -14
WCcheckFlow[sink_18,sink_6] 7
WCcheckFlow[sink_25,innode_8] -36
WCcheckFlow[sink_6,sink_7] 4
WCcheckFlow[sink_6,sink_22] 2
WCcheckFlow[sink_7,sink_24] 3
WCcheckFlow[sink_22,sink_1] 1
WCcheckFlow[sink_24,sink_21] 2
WCcheckFlow[sink_21,sink_12] 1
WCcheckFlow[sink_7,sink_5] 0
WCcheckFlow[sink_5,sink_17] -1
WCcheckFlow[sink_17,sink_4] -3
WCcheckFlow[sink_17,sink_8] 1
WCcheckFlow[sink_3,sink_23] 1
WCcheckFlow[sink_8,sink_20] 0
WCcheckFlow[sink_25,sink_20] 15
WCcheckFlow[sink_25,sink_15] 6
WCcheckFlow[sink_15,sink_29] 5
WCcheckFlow[sink_29,sink_28] 1
WCcheckFlow[sink_29,sink_2] 1
WCcheckFlow[sink_2,sink_15] 0
WCcheckFlow[sink_29,innode_7] 2
WCcheckFlow[innode_4,sink_19] -4
WCcheckFlow[sink_19,innode_3] -5
WCcheckFlow[innode_4,innode_5] 2
WCcheckFlow[sink_27,innode_5] -1
WCcheckFlow[sink_27,sink_19] 0
WCcheckFlow[sink_10,sink_11] 3
WCcheckFlow[sink_10,innode_2] 1
WCcheckFlow[sink_10,innode_3] 6
WCcheckFlow[innode_6,sink_25] -14
WCcheckFlow[sink_11,innode_1] 2
WCcheckFlow[sink_19,innode_2] 0
WCcheckFlow[source_3,innode_4] -1
WCcheckFlow[source_2,innode_7] -1
WCcheckFlow[sink_3,innode_8] 37
